     Program PWSCF v.6.0 starts on 27May2021 at 13:35:35

     Current dimensions of program PWSCF are:
     Max number of different atomic species (ntypx) = 10
     Max number of k-points (npk) =  40000
     Max angular momentum in pseudopotentials (lmaxx) =  3
               file C.pbe-n-kjpaw_psl.1.0.0.UPF: wavefunction(s)  2S 2P renormalized

     Subspace diagonalization in iterative solution of the eigenvalue problem:
     a serial algorithm will be used

     bravais-lattice index     =            0
     lattice parameter (alat)  =       4.6487  a.u.
     unit-cell volume          =     708.9691 (a.u.)^3
     number of atoms/cell      =            2
     number of atomic types    =            1
     number of electrons       =         8.00
     number of Kohn-Sham states=            8
     kinetic-energy cutoff     =      40.0000  Ry
     charge density cutoff     =     400.0000  Ry
     convergence threshold     =      1.0E-10
     mixing beta               =       0.3000
     number of iterations used =            8  plain     mixing
     Exchange-correlation      =  SLA  PW   PBX  PBC ( 1  4  3  4 0 0)

     celldm(1)=   4.648726  celldm(2)=   0.000000  celldm(3)=   0.000000
     celldm(4)=   0.000000  celldm(5)=   0.000000  celldm(6)=   0.000000

     crystal axes: (cart. coord. in units of alat)
               a(1) = (   1.000000   0.000000   0.000000 )
               a(2) = (  -0.501152   0.868021   0.000000 )
               a(3) = (   0.000000   0.000000   8.130081 )

     reciprocal axes: (cart. coord. in units 2 pi/alat)
               b(1) = (  1.000000  0.577350 -0.000000 )
               b(2) = (  0.000000  1.152045  0.000000 )
               b(3) = (  0.000000 -0.000000  0.123000 )

     PseudoPot. # 1 for  C read from file:
     /home/maestro/Downloads/SSSP_efficiency_pseudos/C.pbe-n-kjpaw_psl.1.0.0.UPF
     MD5 check sum: 5d2aebdfa2cae82b50a7e79e9516da0f
     Pseudo is Projector augmented-wave + core cor, Zval =  4.0
     Generated using "atomic" code by A. Dal Corso  v.5.1
     Shape of augmentation charge: PSQ
     Using radial grid of 1073 points,  4 beta functions with:
                l(1) =   0
                l(2) =   0
                l(3) =   1
                l(4) =   1
     Q(r) pseudized with 0 coefficients

     atomic species   valence    mass     pseudopotential
        C              4.00    12.01070      C( 1.00)

      2 Sym. Ops. (no inversion) found ( 1 have fractional translation)
          (note:  2 additional sym.ops. were found but ignored
           their fractional translations are incommensurate with FFT grid)

   Cartesian axes

     site n.     atom                  positions (alat units)
         1           C   tau(   1) = (   0.0000000   0.0000000   2.0325203  )
         2           C   tau(   2) = (  -0.0007683   0.5786810   2.0325203  )

     number of k points=    74  Marzari-Vanderbilt smearing, width (Ry)=  0.0001
                       cart. coord. in units 2pi/alat
        k(    1) = (   0.0000000   0.0000000   0.0000000), wk =   0.0138889
        k(    2) = (   0.0000000   0.0960038   0.0000000), wk =   0.0277778
        k(    3) = (   0.0000000   0.1920075   0.0000000), wk =   0.0277778
        k(    4) = (   0.0000000   0.2880113   0.0000000), wk =   0.0277778
        k(    5) = (   0.0000000   0.3840151   0.0000000), wk =   0.0277778
        k(    6) = (   0.0000000   0.4800188   0.0000000), wk =   0.0277778
        k(    7) = (   0.0000000  -0.5760226   0.0000000), wk =   0.0138889
        k(    8) = (   0.0833333   0.0481125   0.0000000), wk =   0.0277778
        k(    9) = (   0.0833333   0.1441163   0.0000000), wk =   0.0277778
        k(   10) = (   0.0833333   0.2401201   0.0000000), wk =   0.0277778
        k(   11) = (   0.0833333   0.3361238   0.0000000), wk =   0.0277778
        k(   12) = (   0.0833333   0.4321276   0.0000000), wk =   0.0277778
        k(   13) = (   0.0833333   0.5281314   0.0000000), wk =   0.0277778
        k(   14) = (   0.0833333  -0.5279101   0.0000000), wk =   0.0277778
        k(   15) = (   0.0833333  -0.4319063   0.0000000), wk =   0.0277778
        k(   16) = (   0.0833333  -0.3359026   0.0000000), wk =   0.0277778
        k(   17) = (   0.0833333  -0.2398988   0.0000000), wk =   0.0277778
        k(   18) = (   0.0833333  -0.1438950   0.0000000), wk =   0.0277778
        k(   19) = (   0.0833333  -0.0478912   0.0000000), wk =   0.0277778
        k(   20) = (   0.1666667   0.0962250   0.0000000), wk =   0.0277778
        k(   21) = (   0.1666667   0.1922288   0.0000000), wk =   0.0277778
        k(   22) = (   0.1666667   0.2882326   0.0000000), wk =   0.0277778
        k(   23) = (   0.1666667   0.3842364   0.0000000), wk =   0.0277778
        k(   24) = (   0.1666667   0.4802401   0.0000000), wk =   0.0277778
        k(   25) = (   0.1666667   0.5762439   0.0000000), wk =   0.0277778
        k(   26) = (   0.1666667  -0.4797976   0.0000000), wk =   0.0277778
        k(   27) = (   0.1666667  -0.3837938   0.0000000), wk =   0.0277778
        k(   28) = (   0.1666667  -0.2877900   0.0000000), wk =   0.0277778
        k(   29) = (   0.1666667  -0.1917863   0.0000000), wk =   0.0277778
        k(   30) = (   0.1666667  -0.0957825   0.0000000), wk =   0.0277778
        k(   31) = (   0.1666667   0.0002213   0.0000000), wk =   0.0277778
        k(   32) = (   0.2500000   0.1443376   0.0000000), wk =   0.0277778
        k(   33) = (   0.2500000   0.2403413   0.0000000), wk =   0.0277778
        k(   34) = (   0.2500000   0.3363451   0.0000000), wk =   0.0277778
        k(   35) = (   0.2500000   0.4323489   0.0000000), wk =   0.0277778
        k(   36) = (   0.2500000   0.5283526   0.0000000), wk =   0.0277778
        k(   37) = (   0.2500000   0.6243564   0.0000000), wk =   0.0277778
        k(   38) = (   0.2500000  -0.4316850   0.0000000), wk =   0.0277778
        k(   39) = (   0.2500000  -0.3356813   0.0000000), wk =   0.0277778
        k(   40) = (   0.2500000  -0.2396775   0.0000000), wk =   0.0277778
        k(   41) = (   0.2500000  -0.1436737   0.0000000), wk =   0.0277778
        k(   42) = (   0.2500000  -0.0476700   0.0000000), wk =   0.0277778
        k(   43) = (   0.2500000   0.0483338   0.0000000), wk =   0.0277778
        k(   44) = (   0.3333333   0.1924501   0.0000000), wk =   0.0277778
        k(   45) = (   0.3333333   0.2884539   0.0000000), wk =   0.0277778
        k(   46) = (   0.3333333   0.3844576   0.0000000), wk =   0.0277778
        k(   47) = (   0.3333333   0.4804614   0.0000000), wk =   0.0277778
        k(   48) = (   0.3333333   0.5764652   0.0000000), wk =   0.0277778
        k(   49) = (   0.3333333   0.6724689   0.0000000), wk =   0.0277778
        k(   50) = (   0.3333333  -0.3835725   0.0000000), wk =   0.0277778
        k(   51) = (   0.3333333  -0.2875688   0.0000000), wk =   0.0277778
        k(   52) = (   0.3333333  -0.1915650   0.0000000), wk =   0.0277778
        k(   53) = (   0.3333333  -0.0955612   0.0000000), wk =   0.0277778
        k(   54) = (   0.3333333   0.0004426   0.0000000), wk =   0.0277778
        k(   55) = (   0.3333333   0.0964463   0.0000000), wk =   0.0277778
        k(   56) = (   0.4166667   0.2405626   0.0000000), wk =   0.0277778
        k(   57) = (   0.4166667   0.3365664   0.0000000), wk =   0.0277778
        k(   58) = (   0.4166667   0.4325701   0.0000000), wk =   0.0277778
        k(   59) = (   0.4166667   0.5285739   0.0000000), wk =   0.0277778
        k(   60) = (   0.4166667   0.6245777   0.0000000), wk =   0.0277778
        k(   61) = (   0.4166667   0.7205815   0.0000000), wk =   0.0277778
        k(   62) = (   0.4166667  -0.3354600   0.0000000), wk =   0.0277778
        k(   63) = (   0.4166667  -0.2394562   0.0000000), wk =   0.0277778
        k(   64) = (   0.4166667  -0.1434525   0.0000000), wk =   0.0277778
        k(   65) = (   0.4166667  -0.0474487   0.0000000), wk =   0.0277778
        k(   66) = (   0.4166667   0.0485551   0.0000000), wk =   0.0277778
        k(   67) = (   0.4166667   0.1445588   0.0000000), wk =   0.0277778
        k(   68) = (  -0.5000000  -0.2886751   0.0000000), wk =   0.0138889
        k(   69) = (  -0.5000000  -0.1926714   0.0000000), wk =   0.0277778
        k(   70) = (  -0.5000000  -0.0966676   0.0000000), wk =   0.0277778
        k(   71) = (  -0.5000000  -0.0006638   0.0000000), wk =   0.0277778
        k(   72) = (  -0.5000000   0.0953399   0.0000000), wk =   0.0277778
        k(   73) = (  -0.5000000   0.1913437   0.0000000), wk =   0.0277778
        k(   74) = (  -0.5000000  -0.8646977   0.0000000), wk =   0.0138889

     Check: negative/imaginary core charge=   -0.000002    0.000000

     Initial potential from superposition of free atoms
     Check: negative starting charge=   -0.000107

     starting charge    7.99992, renormalised to    8.00000

     negative rho (up, down):  1.066E-04 0.000E+00
     Starting wfc are    8 randomized atomic wfcs
     Checking if some PAW data can be deallocated...

     Self-consistent Calculation

     iteration #  1     ecut=    40.00 Ry     beta=0.30
     Davidson diagonalization with overlap
     ethr =  1.00E-02,  avg # of iterations =  4.9

     negative rho (up, down):  1.074E-04 0.000E+00

     total energy              =     -36.90773908 Ry
     Harris-Foulkes estimate   =     -36.97806989 Ry
     estimated scf accuracy    <       0.20377991 Ry

[...]

     total energy              =     -36.88585843 Ry
     Harris-Foulkes estimate   =     -36.88585843 Ry
     estimated scf accuracy    <          2.5E-10 Ry

     iteration # 10     ecut=    40.00 Ry     beta=0.30
     Davidson diagonalization with overlap
     ethr =  3.10E-12,  avg # of iterations =  2.0

     negative rho (up, down):  1.263E-04 0.000E+00

     End of self-consistent calculation

          k = 0.0000 0.0000 0.0000 (  3053 PWs)   bands (ev):

   -21.8953  -9.9835  -5.3960  -5.3767   0.8500   1.5170   1.6464   2.6567

[...]

          k = 0.4167 0.1446 0.0000 (  3031 PWs)   bands (ev):

[...]

          k =-0.5000-0.2887 0.0000 (  3040 PWs)   bands (ev):

[...]

          k =-0.5000-0.8647 0.0000 (  3044 PWs)   bands (ev):

   -16.6381 -15.6109  -8.7806  -4.7035  -0.6517   5.0898   8.7526   8.8955

     the Fermi energy is    -2.3332 ev

!    total energy              =     -36.88585844 Ry
     Harris-Foulkes estimate   =     -36.88585843 Ry
     estimated scf accuracy    <          1.4E-11 Ry

     total all-electron energy =      -152.414054 Ry

     The total energy is the sum of the following terms:

     one-electron contribution =    -224.33857993 Ry
     hartree contribution      =     113.60714224 Ry
     xc contribution           =      -9.27916370 Ry
     ewald contribution        =      95.45874889 Ry
     one-center paw contrib.   =     -12.33400594 Ry
     smearing contrib. (-TS)   =       0.00000000 Ry

     convergence has been achieved in  10 iterations

     Writing output data file graphene.save

     General routines

     Parallel routines

   This run was terminated on:  13:37:16  27May2021

   JOB DONE.